p1:
8999
1 1 1 1 1 1 1 0 1 1 
8 2 1 6 3 8 2 4 4 1 9 0 3 2 8 3 4 0 9 4 3 2 6 4 2 5 1 5 0 5 2 6 0 3 9 4 4 3 0 4 1 8 1 5 4 0 4 0 4 0 
p2:
7942
1 1 1 1 1 1 1 1 1 1 
8 2 1 6 3 8 2 4 4 1 9 0 3 2 8 3 4 0 9 7 3 4 6 4 2 5 1 5 0 5 2 6 0 3 9 4 4 3 0 4 1 8 1 5 7 0 4 0 4 0 
p3:
9720
1 1 1 1 1 1 1 0 1 1 
8 2 1 6 3 8 2 4 4 1 9 0 3 2 8 3 4 0 9 4 3 4 6 4 2 5 1 5 0 5 2 6 0 3 9 4 4 3 0 4 1 8 1 5 4 0 2 0 4 0 
p4:
11317
1 0 1 1 1 1 1 0 1 1 
2 2 5 6 3 8 2 4 4 5 9 8 3 2 8 3 4 0 9 4 3 8 6 4 2 5 3 5 0 5 2 6 0 3 9 4 4 3 0 4 5 8 3 5 4 0 4 0 4 0 
p5:
9169
1 1 1 1 1 1 1 1 1 1 
8 8 1 6 3 8 2 4 4 1 9 8 3 2 8 3 4 0 9 7 3 8 6 4 2 5 1 5 0 5 2 6 0 3 9 4 4 3 0 4 1 8 1 5 7 0 2 3 7 0 
p6:
7886
1 1 1 1 1 1 1 1 1 1 
8 8 1 6 3 8 2 4 4 1 9 8 3 2 8 3 4 0 9 7 3 8 6 4 2 5 1 5 0 5 2 6 0 3 9 4 7 3 0 4 1 8 1 5 7 0 2 3 4 0 
p7:
9609
1 1 1 1 1 0 1 1 1 1 
8 8 1 6 3 8 2 4 4 1 9 8 3 2 8 3 4 0 9 7 3 7 6 4 2 6 1 1 8 1 2 6 0 3 9 4 4 3 0 4 1 8 1 6 7 0 2 0 7 0 
p8:
11648
1 1 1 1 1 1 1 0 1 1 
8 2 1 6 3 8 2 4 4 1 9 8 3 2 8 3 2 0 9 9 3 8 6 4 2 5 1 5 8 5 9 6 0 3 9 4 4 3 0 4 1 8 1 5 4 0 9 0 4 0 
p9:
8742
1 1 1 1 1 1 0 0 1 1 
8 8 1 5 3 8 2 4 4 1 9 8 3 2 8 3 4 0 9 4 3 8 9 4 2 5 1 5 0 5 2 5 0 3 9 4 4 3 0 4 1 8 1 5 4 0 2 0 4 0 
p10:
7695
1 1 1 1 1 1 1 1 1 0 
8 8 1 6 3 8 2 4 4 1 4 8 3 2 8 3 4 0 6 7 3 8 6 4 2 5 1 5 0 5 2 6 0 3 4 4 4 3 0 4 1 8 1 5 7 0 4 0 4 0 
p11:
9334
1 1 1 1 1 1 1 0 1 0 
8 8 1 6 3 8 2 4 2 1 4 8 3 2 8 3 4 0 6 4 3 8 6 4 2 5 1 5 0 5 2 6 0 3 4 4 4 3 0 4 1 8 1 5 4 0 2 0 4 0 
p12:
11033
1 1 1 1 1 1 0 0 1 1 
8 8 1 5 3 8 2 4 4 1 9 8 3 2 8 3 4 0 9 4 3 8 9 4 2 5 1 5 0 5 2 5 0 3 9 4 4 3 0 4 1 8 1 5 4 0 2 0 4 0 
p13:
9081
1 1 0 0 0 0 0 1 1 1 0 0 1 1 0 1 0 1 0 1 
0 12 7 7 1 12 17 13 12 17 15 19 1 9 13 12 15 7 17 9 12 15 15 19 9 17 0 17 1 17 13 7 13 0 1 7 8 19 19 13 9 0 15 0 8 13 12 7 19 9 
p14:
7540
1 1 0 1 0 0 1 0 0 0 1 0 1 1 0 1 1 1 0 1 
16 12 10 10 1 12 17 13 12 17 15 19 1 6 13 3 15 10 17 6 12 15 15 19 6 17 16 17 1 17 13 15 13 16 3 10 3 19 19 13 6 0 0 0 3 13 12 10 19 6 
p15:
10007
1 1 1 1 0 0 0 0 0 1 1 0 1 1 0 1 1 1 0 0 
16 12 10 10 1 12 17 13 12 17 15 1 1 10 13 3 15 10 17 9 12 15 15 2 9 17 16 17 1 17 13 15 2 16 3 10 3 1 1 13 9 0 0 0 3 13 12 10 2 9 
p16:
11227
0 0 1 1 0 0 1 0 0 0 1 0 1 0 0 1 1 1 0 1 
16 12 10 10 19 12 17 2 12 17 15 19 19 6 2 3 15 10 17 6 12 15 15 19 6 17 16 17 3 17 2 15 2 16 3 10 3 19 19 2 6 16 15 16 3 2 12 10 19 6 
p17:
9356
1 1 0 0 1 0 1 0 1 0 1 0 1 1 0 1 1 0 0 1 
16 12 10 10 1 12 1 13 12 4 15 4 1 6 13 12 15 10 4 6 12 15 15 19 6 4 16 1 1 4 13 15 13 16 1 10 8 19 19 13 6 0 0 0 8 13 12 10 19 8 
p18:
7701
0 0 1 0 0 0 1 0 0 0 1 1 1 0 0 1 1 1 1 1 
16 12 10 10 19 18 17 18 12 17 15 19 19 6 2 11 15 10 17 6 12 15 15 19 6 17 16 17 12 17 2 15 2 16 11 10 11 19 19 2 6 16 15 16 11 15 12 10 19 6 
p19:
10289
1 0 0 0 0 0 0 1 0 1 0 1 1 1 0 1 0 0 0 1 
0 12 7 7 12 12 11 13 12 11 15 19 12 9 13 11 15 7 19 9 12 15 15 19 9 19 0 11 12 11 13 7 13 0 12 7 11 13 19 13 9 0 0 15 11 13 12 7 19 9 
p20:
11117
0 0 0 1 0 0 1 0 0 0 1 0 0 0 1 1 1 1 1 1 
16 3 10 10 19 18 17 18 14 17 15 19 19 6 18 3 15 10 17 6 14 15 15 19 6 17 16 17 3 17 18 15 18 16 3 10 3 19 19 18 6 16 15 16 3 15 14 10 19 6 
p21:
8564
0 1 0 1 0 0 0 0 0 1 1 0 0 1 1 1 1 1 0 1 
16 1 10 10 1 15 17 13 14 17 15 19 1 10 13 3 15 10 17 9 14 15 15 19 9 17 16 17 1 17 13 15 13 16 3 10 3 19 19 13 10 16 15 16 3 13 14 10 19 9 
p22:
7578
0 1 0 0 0 0 1 0 1 0 1 1 1 1 0 1 1 1 0 1 
16 12 10 10 1 12 17 13 12 17 15 19 1 6 13 11 15 10 17 6 12 15 15 19 6 17 16 17 1 17 13 15 13 16 1 10 11 19 19 13 6 16 15 16 8 13 12 10 19 8 
p23:
9703
0 1 1 0 0 0 1 0 0 0 1 1 1 0 0 1 1 1 0 1 
16 12 10 10 1 12 17 2 12 17 15 19 1 6 2 11 15 10 17 6 12 15 15 19 6 17 16 17 1 17 2 15 2 16 1 10 11 19 19 2 6 16 15 16 11 15 12 10 19 6 
p24:
10840
1 1 0 0 0 0 0 0 1 0 1 0 1 1 0 1 0 1 0 0 
0 12 10 10 1 12 17 13 12 17 15 1 1 10 13 12 15 10 17 8 12 15 15 13 10 17 0 17 1 17 13 15 13 0 1 10 8 1 1 13 10 0 0 0 8 13 12 10 1 8 
p25:
13801
1 0 1 0 0 1 0 1 1 0 0 1 0 0 1 1 0 1 0 1 1 0 1 0 1 1 0 0 0 0 
20 11 20 2 20 5 19 24 14 17 22 8 8 20 17 14 14 0 5 11 2 0 5 17 5 8 19 24 5 24 5 25 20 25 20 20 24 15 0 14 0 14 15 8 24 14 7 20 11 8 5 14 14 5 20 20 2 11 11 14 0 5 20 11 11 11 24 0 24 24 20 20 11 0 24 8 22 20 14 24 20 7 20 17 19 17 2 7 20 5 2 24 7 11 17 5 2 19 25 20 8 17 17 25 2 25 7 11 14 8 14 14 2 11 11 25 24 24 24 24 5 8 25 20 8 0 5 24 0 25 0 11 24 5 8 14 17 5 20 17 0 8 20 14 8 25 25 5 2 5 
p26:
12372
1 0 1 1 0 1 0 1 1 0 0 1 0 1 1 0 0 1 0 1 1 0 0 0 1 1 0 0 0 0 
20 11 13 2 20 5 2 24 14 17 24 8 8 20 3 14 14 0 5 11 2 0 5 3 5 8 19 24 5 24 5 25 13 25 20 20 24 24 0 14 0 14 24 8 24 14 7 13 11 8 25 14 14 5 13 20 17 11 11 14 0 5 20 11 11 11 24 0 24 24 20 20 11 0 24 8 24 20 14 24 20 7 13 17 19 17 17 7 20 5 2 24 17 11 17 5 2 3 25 13 8 17 17 25 2 25 17 11 14 14 14 14 2 11 11 25 24 24 24 24 5 8 25 13 8 0 5 24 0 25 0 11 24 5 8 14 17 5 20 0 0 8 20 14 8 25 25 5 2 5 
p27:
15140
1 0 1 0 0 1 0 1 1 1 0 1 0 1 1 0 0 1 0 1 1 0 0 0 1 1 0 0 0 0 
20 11 13 2 20 5 2 24 14 17 9 8 8 20 19 14 14 17 5 11 2 0 5 17 5 8 19 24 5 24 5 25 20 25 20 20 24 24 0 14 0 14 24 8 24 14 0 13 11 8 5 14 14 5 13 20 17 11 0 14 0 5 20 11 11 11 24 0 9 24 20 20 11 17 24 8 9 20 14 24 20 7 20 17 19 17 2 7 20 5 2 24 17 11 17 9 2 2 25 20 8 7 14 25 19 25 17 11 14 8 14 14 2 11 11 25 24 24 24 24 5 8 25 13 8 0 5 9 0 25 0 11 24 5 8 14 7 5 20 0 0 8 20 14 8 25 25 5 2 5 
p28:
17897
1 0 1 0 0 1 0 1 1 0 0 1 0 1 1 0 0 1 0 0 1 1 1 0 1 1 0 0 0 0 
20 11 13 14 20 5 2 24 14 17 22 8 8 20 7 14 14 17 5 11 14 0 5 2 22 8 2 24 24 24 5 25 13 25 20 20 24 24 0 14 0 14 24 8 24 14 7 13 11 8 5 14 14 5 20 20 2 11 0 14 0 5 20 11 11 11 22 0 22 22 20 20 11 0 24 8 22 20 14 24 20 7 13 17 17 17 17 7 20 5 2 24 17 11 17 5 2 2 21 13 8 17 14 25 2 25 7 11 14 14 14 14 2 11 11 21 24 24 24 24 5 8 25 13 8 0 5 24 0 21 0 11 24 5 8 14 17 5 20 17 0 8 20 14 8 25 25 5 2 5 
p29:
14624
1 0 1 0 0 1 1 1 1 0 0 1 0 1 1 0 0 1 0 0 1 0 0 0 1 1 0 0 0 1 
20 11 20 2 20 11 2 25 14 17 29 8 8 20 17 14 14 17 5 11 2 0 24 17 29 8 2 24 5 24 5 25 6 25 20 20 5 24 0 14 0 14 24 8 24 14 7 13 11 8 29 14 14 5 20 20 17 25 11 14 0 24 20 11 11 11 24 0 29 29 13 6 11 17 24 8 29 20 2 5 20 7 13 17 17 17 17 7 20 29 2 5 17 11 7 5 2 2 25 13 8 17 17 25 2 29 17 11 14 8 14 14 2 11 11 25 24 24 24 5 11 8 25 13 8 0 5 24 0 25 0 11 5 5 8 14 7 5 20 17 0 8 20 14 8 25 25 5 2 24 
p30:
13263
1 0 1 0 0 1 0 1 1 0 0 1 0 1 1 0 0 1 1 0 1 0 1 0 1 1 0 1 1 1 
20 11 13 2 20 5 2 24 14 17 22 8 8 20 17 14 14 17 5 11 2 0 24 17 5 8 2 24 5 24 5 25 13 25 20 8 24 22 0 14 0 14 24 28 24 14 7 13 27 8 29 28 14 5 20 20 17 27 0 14 0 5 20 11 11 11 22 0 24 22 13 20 11 17 24 8 22 20 14 24 20 7 20 17 17 17 2 7 20 5 2 24 7 11 17 5 2 2 25 18 8 17 17 25 2 29 17 11 14 28 14 14 2 11 11 25 24 24 5 24 5 8 25 13 18 0 5 22 0 29 0 11 24 29 8 14 17 5 20 17 0 8 20 14 8 25 25 5 2 5 
p31:
15716
1 0 1 0 0 1 0 1 1 1 0 1 0 1 1 0 0 1 0 0 1 0 0 0 1 1 0 1 1 0 
20 11 13 2 20 5 2 24 14 17 24 8 8 20 2 14 14 17 25 11 2 0 5 17 5 8 2 24 5 24 25 25 13 25 8 20 24 9 0 14 0 14 24 28 24 14 7 13 27 8 5 28 14 5 13 20 17 11 11 14 0 5 20 11 11 11 9 0 5 9 20 20 11 17 24 8 9 20 14 9 13 7 20 17 17 17 17 7 20 5 2 24 17 11 17 9 2 2 25 20 8 17 17 25 2 25 17 11 14 28 14 14 2 11 11 27 24 24 24 24 5 8 25 13 8 0 5 9 0 25 0 11 24 5 8 14 7 5 20 17 0 8 20 14 8 25 25 5 2 5 
p32:
18725
1 0 1 0 0 1 0 1 1 0 0 1 0 1 1 0 0 1 0 0 1 0 0 0 1 1 0 0 1 1 
20 11 13 2 20 11 2 24 14 17 24 8 8 20 17 8 14 17 5 11 2 0 5 17 29 8 2 24 24 5 5 25 13 25 20 20 24 24 0 14 0 14 24 28 24 14 7 13 25 8 29 14 14 5 13 13 17 11 0 14 0 5 20 11 11 11 5 0 29 29 20 20 11 17 5 8 5 20 14 24 20 7 13 0 17 17 2 7 20 5 2 24 17 11 17 5 2 2 25 20 8 17 17 25 2 29 17 11 14 28 14 14 2 11 11 25 11 24 24 11 5 8 25 13 8 0 25 24 0 25 0 11 24 29 8 14 17 5 20 17 0 8 20 14 8 25 25 5 2 5 
p33:
14229
1 0 1 0 0 1 0 1 1 1 0 1 0 1 1 0 0 1 0 0 1 0 1 0 1 1 0 0 0 0 
20 11 13 2 20 5 2 9 14 17 22 8 8 20 17 14 14 17 5 11 2 0 5 17 5 8 2 24 5 24 5 25 13 25 20 20 24 24 0 14 0 14 24 8 24 14 7 13 11 8 5 14 14 5 13 20 17 11 0 14 0 5 20 11 11 11 22 0 9 9 20 20 11 17 24 8 22 20 14 24 20 7 13 17 17 17 17 7 20 5 2 24 17 11 17 5 2 2 25 13 8 17 17 25 2 25 17 11 14 8 14 14 2 11 11 25 24 24 24 24 5 8 25 13 20 0 5 9 0 25 0 11 24 5 8 14 7 5 20 17 0 8 20 14 8 25 25 5 2 5 
p34:
12264
1 0 1 0 0 1 0 1 1 0 0 1 0 1 1 0 0 1 0 0 1 0 0 0 1 1 0 1 0 1 
20 11 13 2 20 5 2 24 14 17 5 8 8 20 17 14 14 17 5 11 2 0 24 17 5 8 2 24 5 5 5 25 20 25 20 20 24 24 0 14 0 14 24 8 24 14 7 13 27 8 29 14 14 5 13 20 17 27 11 14 0 5 20 11 11 11 24 0 24 24 20 20 11 17 24 8 24 20 14 24 20 7 20 17 17 17 17 7 20 5 2 5 7 11 17 24 2 2 25 13 8 17 17 25 2 29 17 11 14 8 14 14 2 11 11 27 24 24 24 24 5 8 25 13 8 0 5 24 0 29 0 11 24 5 8 14 17 5 20 17 0 8 20 14 8 25 25 5 2 5 
p35:
14084
1 0 1 0 0 1 0 0 1 1 0 1 0 0 1 0 1 1 0 0 1 0 0 0 1 1 0 0 0 0 
20 11 8 2 20 5 2 24 14 17 9 16 8 20 17 14 14 17 5 11 2 0 5 17 5 8 2 24 5 24 5 25 20 25 20 20 24 24 0 14 0 14 24 8 24 14 0 20 11 8 5 14 14 5 20 20 17 11 0 14 0 24 20 11 11 11 24 0 9 24 20 20 11 17 24 8 24 20 14 24 20 0 20 17 17 17 17 0 20 5 2 24 17 11 17 9 2 2 25 16 8 17 17 25 2 25 17 11 14 8 14 14 2 11 11 25 24 24 24 24 5 8 25 8 16 0 5 9 0 25 0 11 24 5 8 14 17 5 20 17 0 8 20 14 8 25 25 5 2 5 
p36:
17743
1 0 1 0 0 1 0 1 1 0 0 1 0 1 1 1 0 1 0 1 1 0 0 0 1 1 0 0 0 0 
20 11 13 2 20 5 2 24 14 17 24 8 8 20 17 14 14 17 5 11 2 0 5 17 5 8 19 24 5 24 5 25 20 25 20 20 24 15 0 14 0 14 15 8 24 14 0 13 11 8 5 14 14 5 13 20 17 11 0 14 0 5 20 11 11 11 24 0 5 24 20 20 11 17 24 8 15 20 14 24 20 7 13 17 19 17 17 7 20 5 2 24 17 11 17 24 2 19 25 13 8 17 17 25 2 25 17 11 14 8 14 14 2 11 11 0 24 24 24 24 5 8 25 13 8 0 5 24 0 25 0 11 24 5 8 14 7 5 20 17 0 8 20 14 8 25 25 5 2 5 
p37:
14051
1 0 1 0 0 1 0 1 1 0 0 1 0 1 1 0 0 1 0 0 1 0 0 0 1 1 0 0 1 1 
20 11 13 2 20 5 2 24 14 17 24 8 8 20 17 14 14 17 5 11 2 0 5 17 5 8 2 24 5 24 5 25 13 25 20 20 24 24 0 14 0 14 24 28 24 14 0 13 11 8 29 14 14 5 13 20 17 11 0 14 0 5 20 11 11 11 24 0 5 24 20 20 11 17 24 8 24 20 14 24 20 7 20 17 17 17 17 7 20 5 2 24 17 11 17 24 2 2 25 13 8 17 17 25 2 29 17 11 14 28 14 14 2 11 11 25 24 24 24 24 5 8 25 13 8 0 5 24 0 29 0 11 24 5 8 14 7 5 20 17 0 8 20 14 8 25 25 5 2 5 
p38:
11933
1 0 1 0 0 1 0 1 1 1 0 1 0 0 1 0 0 1 0 0 1 0 1 0 1 1 0 0 0 0 
20 11 20 2 20 5 2 9 14 17 22 20 8 20 17 14 14 17 5 11 2 0 5 17 5 8 2 24 5 24 5 25 8 25 20 20 24 24 0 14 0 14 24 8 24 14 7 20 11 8 5 14 14 5 20 20 17 11 0 14 0 5 20 11 11 11 22 0 9 24 20 8 11 17 24 8 22 20 14 24 20 7 20 17 17 17 17 7 20 5 2 24 17 11 17 9 2 2 25 20 8 17 17 25 2 25 17 11 14 8 14 14 2 11 11 25 24 24 24 24 5 8 25 20 8 0 5 9 0 25 0 11 24 5 8 14 17 5 20 17 0 8 20 14 8 25 25 5 2 5 
p39:
14991
1 0 1 0 0 1 0 1 1 1 0 1 0 1 1 0 0 1 0 0 1 0 0 0 1 1 0 1 0 0 
20 11 20 2 20 5 2 24 14 17 9 8 8 20 17 14 14 17 5 11 2 0 5 17 5 8 2 24 5 24 5 25 20 25 20 20 24 9 0 14 0 14 24 8 24 14 7 13 27 8 5 14 14 5 20 20 17 27 11 14 0 5 20 11 11 11 24 0 9 24 20 20 11 17 24 8 24 20 14 24 20 7 20 17 17 17 17 7 20 5 2 24 17 11 17 9 2 2 25 20 8 17 17 25 2 25 17 11 14 8 14 14 2 11 11 25 24 24 24 24 5 8 25 13 8 0 5 24 0 25 0 11 24 5 8 14 17 5 20 17 0 8 20 14 8 25 25 5 2 5 
p40:
18471
1 0 1 0 0 1 0 1 1 1 0 1 0 1 1 0 0 1 0 1 1 0 0 0 1 1 0 0 0 1 
20 11 20 2 20 5 2 9 14 17 24 8 8 20 19 14 14 17 5 11 2 0 5 17 5 8 19 24 5 24 5 25 13 25 20 20 24 24 0 14 0 14 24 8 24 14 7 13 11 8 29 14 14 5 20 20 17 11 11 14 0 5 20 11 11 11 9 0 9 9 20 20 11 17 24 8 24 20 14 24 20 7 13 17 19 17 17 7 20 5 2 24 17 11 17 24 2 2 25 20 8 17 17 25 2 29 17 11 14 8 14 14 2 11 11 25 24 24 24 24 5 8 25 13 8 0 5 9 0 25 0 11 24 5 8 14 7 5 20 17 0 8 20 14 8 25 25 5 2 5 
p41:
7105
1 1 1 1 1 1 1 1 1 1 
5 6 4 1 7 9 3 7 8 8 4 6 2 6 2 7 7 3 0 6 6 1 4 1 6 5 5 4 8 5 8 0 0 0 3 9 2 6 6 9 2 7 3 3 3 5 0 5 6 4 1 1 6 6 9 7 2 8 8 8 0 0 1 5 0 6 6 6 4 4 0 4 4 0 7 7 2 2 6 5 7 2 9 7 9 9 9 9 7 2 
p42:
7388
0 0 1 1 0 0 1 1 1 1 1 1 0 0 1 1 1 0 0 1 
2 10 11 9 15 19 16 3 16 16 11 8 6 10 6 15 15 2 14 14 14 11 9 8 8 8 11 16 2 3 7 19 6 8 14 10 10 15 15 7 16 3 3 16 9 14 8 19 15 15 16 2 7 3 2 9 2 14 14 14 11 11 3 3 11 3 16 15 19 6 10 8 19 19 19 19 19 19 19 19 
p43:
6181
1 0 0 0 0 1 0 0 0 0 0 1 1 0 0 0 0 0 0 0 0 1 1 1 0 0 1 0 0 1 
12 21 11 23 23 22 26 21 12 29 5 23 26 26 11 11 21 11 21 0 0 26 22 22 22 23 29 12 29 29 5 23 23 23 0 22 23 12 21 11 29 12 29 23 5 26 26 22 26 11 21 0 0 12 12 11 21 22 23 29 5 29 23 29 29 29 29 29 29 29 
p44:
7224
1 1 1 1 1 1 1 1 1 1 
4 4 4 4 4 4 4 4 6 0 0 0 0 6 0 0 1 1 1 7 1 7 1 2 2 2 2 2 2 2 2 3 3 3 3 3 3 3 3 3 4 0 1 1 8 8 7 5 9 9 7 6 5 5 8 8 7 7 9 5 5 5 9 3 0 6 6 8 1 0 4 7 9 7 7 7 6 6 5 8 7 7 9 9 9 9 6 5 7 5 
p45:
7426
1 0 1 0 1 1 1 1 1 0 0 0 1 0 0 1 1 1 1 0 
0 0 0 0 0 0 0 6 6 6 6 6 6 6 6 2 2 2 2 2 2 4 4 4 4 4 4 4 4 5 5 5 5 5 5 5 5 5 0 0 2 2 4 12 18 16 16 7 15 16 8 8 17 16 18 16 5 15 7 7 12 2 15 17 18 7 8 12 7 7 18 12 18 17 17 17 8 16 7 7 
p46:
7044
1 1 0 1 0 0 1 1 1 0 0 1 0 0 0 1 0 1 0 0 0 0 0 0 0 0 1 1 1 0 
8 0 0 0 0 0 0 1 1 1 1 11 11 11 11 3 3 3 3 3 3 6 6 6 6 6 6 7 7 8 7 8 8 8 0 3 3 17 3 28 28 3 15 0 17 26 26 17 28 28 0 27 27 11 3 26 27 28 26 17 15 15 28 28 26 27 26 27 15 28 
p47:
6412
1 1 1 1 1 1 1 1 1 1 
0 2 0 0 0 0 0 0 0 0 1 1 1 2 1 1 1 2 2 2 2 2 2 2 2 2 2 3 3 3 3 3 3 3 3 4 4 4 4 4 4 4 4 4 4 4 4 5 5 5 5 5 5 5 6 6 6 6 6 6 6 6 7 7 6 7 6 2 7 7 7 7 7 8 8 6 0 8 8 8 8 8 9 2 9 0 9 9 9 9 
p48:
6259
1 1 0 1 0 1 1 0 1 1 0 1 0 1 0 1 1 0 0 1 
0 0 0 0 1 0 1 1 1 3 3 3 3 3 3 5 5 5 5 5 5 5 5 5 6 6 6 6 6 6 6 8 8 8 8 8 8 8 9 9 9 9 11 11 11 11 11 11 13 13 13 13 13 13 13 15 15 13 15 13 0 15 15 15 15 16 16 16 16 16 16 16 16 19 19 19 19 19 19 19 
p49:
6973
0 0 1 0 0 1 1 0 0 0 1 0 1 0 1 1 0 1 0 1 0 0 0 0 1 0 1 0 0 1 
2 2 2 2 2 2 2 2 5 5 5 5 5 6 6 6 6 6 6 6 6 6 10 10 10 10 10 12 12 14 12 14 15 14 15 15 17 17 17 17 17 17 19 19 19 19 12 19 24 19 24 19 2 24 24 24 24 24 24 26 26 26 26 26 29 29 29 29 29 29 
p50:
9439
1 1 1 1 1 1 1 1 0 1 
3 6 3 0 2 9 5 5 3 7 7 4 6 1 9 9 9 5 5 3 6 0 0 4 0 4 7 4 4 7 7 7 3 3 3 5 9 9 6 6 0 9 9 9 5 5 5 5 5 3 3 5 6 0 0 0 9 6 2 2 9 7 7 7 3 3 0 4 7 7 3 0 6 0 0 4 4 3 3 4 3 5 2 2 2 2 6 7 2 7 9 9 2 1 1 9 1 1 1 1 
p51:
9063
0 1 0 1 0 1 1 0 0 0 1 0 1 1 1 1 1 0 1 1 
15 6 19 10 12 13 5 16 15 1 5 3 6 13 6 13 12 16 5 15 10 10 10 14 14 14 1 3 19 15 1 1 19 19 15 5 13 18 10 10 10 13 13 13 16 5 5 5 5 19 15 5 10 14 14 10 6 6 13 12 13 5 1 5 15 15 10 3 1 1 15 10 10 10 10 19 19 19 19 3 19 5 16 12 18 13 6 5 12 1 13 13 13 13 18 18 13 18 13 13 
p52:
9547
0 1 0 1 1 1 1 1 1 1 
7 7 7 7 7 7 7 7 3 4 4 4 3 4 4 4 4 8 3 8 8 5 3 8 3 5 9 9 9 9 9 9 9 9 6 6 6 6 6 6 6 6 6 6 7 7 4 8 8 5 5 3 4 6 7 1 3 3 3 4 6 5 5 8 3 8 5 6 4 7 6 6 4 3 3 5 3 4 7 1 6 3 3 5 5 3 3 7 5 3 5 5 1 1 5 1 3 4 3 7 
p53:
10474
0 1 1 1 0 1 1 1 0 1 0 0 1 1 0 1 0 1 1 1 
5 5 5 5 5 5 5 5 19 19 19 7 7 7 7 7 7 12 13 12 12 13 13 12 3 9 9 9 9 9 9 9 9 15 18 18 18 18 18 18 18 18 18 18 5 5 7 12 12 15 15 3 7 18 5 15 3 3 1 6 18 2 15 13 3 12 2 5 6 5 17 18 6 3 3 15 3 6 6 2 18 19 12 15 15 3 1 6 15 3 15 2 17 17 15 17 1 6 1 5 
p54:
9289
1 0 1 1 1 1 1 1 1 1 
7 7 7 7 7 7 7 2 2 2 2 2 2 2 2 2 2 2 2 3 3 3 2 3 3 3 3 3 3 3 3 3 3 3 3 3 3 3 3 6 6 8 6 6 8 8 8 8 8 8 8 3 6 6 6 6 6 6 6 6 6 5 5 6 5 5 5 6 6 0 0 6 0 5 7 0 0 0 0 0 0 0 0 4 4 4 4 4 4 4 4 9 4 9 9 9 2 9 9 9 
p55:
9186
1 0 1 0 0 0 1 1 1 1 0 1 1 1 0 1 0 1 1 0 
17 18 17 18 18 8 17 2 2 2 8 8 2 8 2 8 2 2 8 12 12 12 12 6 6 12 12 12 6 6 6 6 6 6 6 6 6 6 6 7 7 7 0 7 0 0 0 0 0 0 0 0 7 7 7 7 7 7 7 7 11 11 11 11 11 11 11 7 11 9 9 11 9 11 17 13 9 13 9 9 13 15 15 15 15 15 15 15 15 15 15 18 18 18 18 17 18 18 18 18 
p56:
23314
1 0 1 0 1 1 1 1 1 1 1 1 1 1 1 1 1 1 1 1 1 1 1 1 1 0 1 1 1 0 
18 19 21 27 2 12 15 27 22 28 4 28 13 13 28 18 13 20 22 0 18 16 5 24 10 18 27 19 4 2 19 19 4 21 27 6 20 8 24 16 18 9 6 4 8 19 13 21 19 14 24 16 24 16 8 6 11 9 18 7 4 0 7 8 13 11 5 14 28 12 18 12 19 9 23 23 20 23 8 16 10 0 9 7 4 13 6 5 27 7 28 6 7 11 2 13 11 6 0 28 28 15 12 18 4 0 4 24 22 13 19 4 27 12 12 8 28 7 17 8 26 11 17 19 26 16 2 11 26 17 28 24 11 20 23 9 13 13 28 10 12 22 11 11 11 5 24 15 27 7 24 17 23 0 8 11 2 15 13 13 13 27 10 24 5 27 5 4 13 21 5 20 19 14 26 2 0 10 4 10 5 21 2 19 12 8 28 23 0 21 2 21 6 4 7 12 7 15 10 19 
p57:
31139
1 1 1 0 1 1 1 0 1 1 1 1 1 1 1 1 0 1 1 1 1 1 1 1 1 1 1 1 1 0 
18 19 21 27 2 12 15 27 22 28 4 28 13 1 28 18 1 20 22 0 18 21 5 24 10 18 27 19 4 2 19 19 4 21 27 6 20 8 24 15 18 9 6 4 8 19 13 21 19 14 24 24 24 21 8 6 18 9 18 25 4 0 25 8 13 11 5 14 28 25 18 12 19 9 23 23 20 23 8 24 10 0 9 25 4 13 6 5 27 25 28 6 25 25 2 13 11 12 0 28 28 15 25 18 4 0 4 24 22 13 19 4 27 12 12 8 28 25 17 8 26 11 17 19 26 21 2 11 26 17 28 24 25 20 23 9 1 13 28 10 12 22 11 11 25 5 24 15 27 25 24 17 23 0 8 11 2 15 13 13 13 27 10 24 5 27 5 4 1 21 1 20 19 14 26 2 0 10 4 10 5 21 2 19 12 8 28 23 0 21 2 21 6 4 25 12 18 15 10 19 
p58:
46845
1 0 1 1 1 1 1 1 1 1 1 1 1 1 1 0 1 0 1 0 1 1 0 0 1 1 1 1 1 1 
18 6 21 27 2 12 21 27 18 28 4 28 13 13 28 18 3 20 27 0 18 16 5 24 10 18 27 14 29 2 6 26 4 16 27 6 20 8 24 16 18 9 6 4 8 26 13 21 14 14 24 16 24 16 8 6 11 9 18 7 29 0 7 8 13 11 5 14 6 25 18 12 6 9 5 13 20 5 8 16 10 0 9 25 29 13 6 5 27 7 28 6 25 25 2 3 11 6 0 28 28 21 25 18 4 0 4 24 27 3 14 4 27 12 12 8 28 7 14 8 26 11 28 6 26 16 2 11 26 0 28 24 25 20 5 9 3 3 28 10 12 27 11 11 25 5 24 21 27 25 24 0 10 0 8 11 2 16 3 13 13 27 10 24 5 27 5 4 3 21 5 20 28 14 26 2 0 10 29 10 5 21 2 6 12 8 28 10 0 21 2 21 6 4 7 12 7 21 10 6 
p59:
35198
1 0 1 1 1 1 1 1 1 0 1 1 1 1 0 1 1 1 1 1 1 1 1 1 1 1 1 0 1 0 
18 19 21 22 2 12 15 28 22 28 4 28 13 13 28 18 3 20 22 0 18 16 5 24 10 18 24 19 4 2 19 19 4 16 28 6 20 8 24 16 18 8 6 4 8 19 13 21 19 20 24 16 2 16 8 6 11 8 18 25 4 0 7 8 13 11 5 17 28 25 18 12 19 8 23 23 20 23 8 16 10 0 26 25 4 13 6 5 24 7 28 6 25 25 2 3 11 6 0 28 28 15 25 18 4 0 4 24 22 3 19 4 18 12 12 8 28 7 17 8 26 11 17 19 26 16 2 11 26 17 28 24 25 20 23 8 3 3 28 10 12 22 11 11 25 5 24 15 18 25 24 17 23 0 8 11 2 15 3 13 13 0 10 24 5 18 5 4 3 21 5 20 19 10 26 2 0 10 4 10 5 21 2 19 12 8 28 23 0 21 2 21 6 4 7 12 7 15 10 19 
p60:
23735
1 1 1 0 1 1 1 1 1 1 1 1 1 1 1 0 1 1 1 1 1 1 1 1 1 1 1 1 1 0 
18 19 21 22 2 12 21 27 22 28 4 28 13 1 28 18 1 20 22 0 18 16 5 24 10 18 27 19 4 2 19 19 4 16 27 6 20 8 24 16 18 9 6 4 8 19 13 21 19 20 24 16 24 16 8 6 11 9 18 7 4 0 7 8 13 11 5 14 28 25 18 12 19 9 23 23 20 23 8 16 10 0 9 25 4 13 6 5 27 7 28 6 25 25 2 13 11 6 0 28 28 21 25 18 4 0 4 24 22 1 19 4 27 12 12 8 28 7 17 8 26 11 17 19 26 16 2 11 26 28 28 24 25 20 23 9 1 13 28 10 12 22 12 11 25 5 24 21 27 25 24 17 23 0 8 11 2 16 8 13 13 27 10 24 5 27 5 4 1 21 1 20 19 14 26 2 24 10 4 10 5 21 2 19 12 8 11 23 0 21 2 21 6 4 25 12 7 21 10 19 
p61:
31752
1 0 1 1 0 1 1 1 1 1 1 1 1 1 1 1 1 1 1 1 1 1 1 1 1 1 0 1 1 1 
18 6 21 27 2 12 15 27 22 28 29 28 13 13 28 18 3 20 22 0 18 16 5 24 10 18 27 19 29 2 19 19 19 16 27 6 20 8 24 15 18 9 12 29 8 19 13 2 19 14 24 16 24 16 8 6 11 9 18 25 29 0 7 8 13 11 5 14 28 25 18 12 19 9 23 13 8 23 8 16 10 0 9 25 29 13 6 5 27 7 28 6 25 25 2 3 11 6 0 28 28 15 25 18 29 0 29 24 22 3 19 29 27 12 12 8 28 7 17 8 9 11 28 19 9 16 2 11 19 17 28 24 25 20 23 9 3 3 28 10 12 22 11 11 25 5 24 15 27 25 24 17 23 0 8 11 2 15 3 13 3 27 10 24 5 27 5 29 3 21 5 20 19 14 29 2 0 10 29 10 5 21 2 19 12 8 28 23 0 21 2 21 6 6 7 12 7 15 10 19 
p62:
49286
1 1 1 1 1 1 1 0 1 1 1 1 1 1 0 0 1 1 1 1 1 1 1 1 1 1 1 1 1 0 
18 19 21 27 2 12 2 27 22 28 4 28 13 1 28 18 1 20 22 0 18 16 5 24 10 18 27 19 4 2 19 19 4 16 27 6 20 8 24 16 18 9 6 4 8 19 13 21 19 20 24 16 24 16 8 6 11 9 18 25 4 0 25 8 13 11 5 17 28 25 18 12 19 9 23 23 20 23 8 16 10 0 9 25 4 13 6 5 27 25 28 6 25 25 2 3 11 6 0 28 28 21 25 18 4 0 4 24 22 3 19 4 27 12 12 8 28 25 17 8 26 11 17 19 26 16 2 11 26 17 11 24 25 20 23 9 3 3 28 10 12 27 11 11 25 5 24 21 27 25 24 17 23 0 8 11 2 16 3 13 13 27 10 24 5 27 5 4 1 21 1 20 19 10 26 2 0 10 4 10 5 16 2 19 12 8 28 23 0 21 2 21 6 4 25 12 25 21 10 19 
p63:
36023
1 1 1 1 1 1 1 0 1 0 1 1 0 1 1 1 0 1 1 1 1 1 1 1 1 1 1 1 1 1 
18 19 21 27 2 6 15 27 22 28 4 28 13 1 28 18 1 20 22 0 18 21 5 24 10 18 27 19 29 2 19 19 4 21 27 6 20 8 24 15 18 8 6 4 8 19 13 21 19 14 24 24 24 21 8 6 11 8 18 25 29 0 25 8 13 11 5 14 28 25 18 6 19 8 23 23 20 23 8 24 10 0 26 25 29 13 6 5 27 25 28 6 25 25 2 3 11 6 0 28 28 15 25 18 4 0 4 24 27 3 19 4 27 6 11 8 28 25 17 8 26 11 17 19 26 21 21 11 26 17 28 24 25 20 23 8 3 3 28 10 11 22 11 11 25 5 24 15 27 25 24 17 23 0 8 11 2 15 3 13 13 27 23 24 5 27 5 4 3 21 1 20 19 14 26 2 0 10 29 10 5 21 2 19 11 8 28 23 0 21 2 21 6 4 25 6 25 15 10 19 
p64:
23838
1 0 1 0 1 1 1 1 1 1 1 1 1 1 1 1 1 1 1 1 1 1 1 1 1 1 1 1 1 1 
18 19 21 27 2 12 15 27 22 28 4 28 13 13 28 18 13 20 22 0 18 16 5 24 10 18 24 19 29 21 19 19 4 16 27 6 20 8 24 16 18 9 6 26 20 19 13 21 19 14 24 16 24 16 8 6 11 9 18 7 29 0 7 8 13 11 5 14 28 25 18 12 19 9 23 23 20 23 8 16 10 0 9 25 29 13 6 5 27 7 28 19 25 25 2 13 11 6 0 28 28 15 25 18 4 0 4 24 22 13 19 4 27 12 12 8 11 7 17 8 26 11 17 19 26 16 2 11 26 17 28 24 25 20 23 9 13 13 28 10 12 22 11 11 25 2 24 15 27 25 24 17 23 0 8 11 2 15 13 13 13 27 10 24 5 27 5 4 13 21 5 20 19 14 26 2 0 10 29 10 5 21 21 19 12 8 28 23 0 21 2 21 6 4 7 12 7 15 10 19 
p65:
30276
1 1 1 0 1 1 1 1 1 1 1 1 0 1 1 0 1 0 1 1 1 1 0 1 1 1 1 1 1 0 
18 19 21 27 2 6 21 27 18 28 4 28 13 1 28 18 1 20 27 0 18 16 5 24 10 18 27 19 4 2 19 19 4 16 27 6 20 8 24 16 18 9 6 4 8 19 13 21 19 14 24 16 24 16 8 6 11 9 18 25 4 0 7 8 13 11 5 14 28 25 7 6 19 9 5 23 20 23 8 16 10 0 9 25 4 13 6 5 27 7 28 6 25 25 2 13 11 6 0 28 28 21 25 18 4 0 4 24 27 13 19 4 27 6 11 8 28 7 14 8 26 11 0 19 26 16 2 11 26 0 28 24 25 20 23 9 1 13 28 10 11 27 11 11 25 5 24 21 27 25 24 28 23 0 8 11 2 16 13 13 13 27 10 2 5 27 5 4 1 21 1 20 19 14 26 2 0 10 4 20 5 21 21 19 11 8 28 23 0 21 2 21 6 4 7 6 7 21 10 19 
p66:
47205
1 0 1 0 1 1 1 1 0 0 1 1 1 1 1 0 1 1 1 1 1 1 1 1 1 1 1 1 1 0 
18 19 21 27 2 12 21 27 22 28 4 28 13 13 28 18 13 20 22 0 27 16 5 24 10 18 27 19 4 2 19 19 4 16 27 6 20 20 24 16 18 26 6 4 20 19 13 21 19 14 24 16 24 16 20 6 11 26 18 7 4 0 7 20 13 11 5 14 28 25 18 12 19 20 23 23 20 23 20 16 10 0 26 25 4 13 6 5 27 7 28 6 25 25 2 13 11 6 0 28 28 21 25 18 4 0 4 24 22 13 19 4 27 12 12 20 11 7 17 20 26 11 17 19 26 16 2 11 26 17 28 21 25 20 23 20 13 13 28 10 11 22 11 25 25 5 24 21 27 25 24 17 23 0 20 11 2 16 13 13 13 27 10 24 5 27 5 4 13 21 5 20 19 14 26 2 0 10 4 10 5 21 2 19 12 20 28 23 0 21 2 21 6 4 7 12 7 21 10 19 
p67:
34681
1 0 1 0 1 0 1 1 1 1 1 1 1 1 1 0 1 1 1 0 1 1 0 1 1 1 1 1 1 1 
18 6 21 27 2 12 21 28 27 28 4 28 13 13 28 18 13 20 27 0 18 16 23 24 10 18 27 17 29 2 6 26 4 16 27 6 20 8 24 16 18 9 6 26 8 4 13 21 14 14 24 16 24 21 8 6 11 8 18 7 29 0 7 8 13 25 23 14 28 25 18 12 6 20 23 23 20 23 8 16 10 0 9 25 29 13 6 23 27 7 28 6 25 25 2 13 27 6 0 28 28 21 25 18 4 0 4 24 27 13 14 4 27 12 12 8 28 7 17 8 26 11 17 6 26 16 2 11 26 17 28 24 25 20 23 9 13 13 28 10 12 18 28 11 25 2 24 16 27 25 24 17 23 0 8 11 2 21 13 13 13 27 10 24 23 27 23 4 13 21 23 20 14 14 26 2 0 10 29 10 23 21 2 6 12 8 28 23 0 21 2 21 6 4 7 12 7 2 10 28 
p68:
23590
1 1 1 0 1 1 1 0 1 1 1 1 1 1 1 1 1 1 1 1 1 1 1 1 1 1 0 1 1 1 
18 19 21 27 2 12 15 27 22 28 4 28 13 1 28 18 1 20 22 0 18 16 5 24 10 18 24 19 29 2 19 19 4 16 27 6 20 8 24 16 18 9 12 4 8 19 13 21 19 14 24 16 24 16 8 6 11 9 18 25 29 0 18 8 13 11 5 14 28 25 18 12 19 9 23 23 20 23 8 16 10 0 9 25 29 13 6 2 27 25 28 6 25 25 2 13 11 6 0 28 28 15 25 18 4 0 4 24 22 13 14 4 27 12 12 8 28 25 17 8 9 11 17 19 4 16 2 11 19 17 28 24 25 20 23 9 1 13 28 10 12 22 12 11 25 5 24 15 27 25 24 17 23 0 8 11 2 15 13 13 13 27 10 24 5 27 5 4 1 21 1 20 19 14 9 2 0 10 29 10 5 21 2 19 12 8 28 23 0 21 2 21 6 4 25 12 25 15 10 19 
p69:
31941
1 1 1 1 1 1 1 1 1 1 1 1 1 1 1 1 1 1 1 1 0 1 1 1 1 1 1 1 1 0 
18 19 21 27 2 12 15 27 22 28 4 28 13 1 28 18 1 10 22 0 18 16 5 24 10 18 27 19 26 2 19 19 4 16 27 6 8 8 24 16 18 9 6 4 8 19 13 21 19 14 24 16 24 16 8 6 11 9 18 25 4 0 7 8 13 11 5 14 28 25 18 12 19 9 23 23 10 23 8 16 10 0 9 25 4 13 6 5 27 7 28 6 25 25 2 3 11 12 0 28 28 15 25 18 4 0 4 24 22 3 19 4 27 12 12 8 28 7 17 8 26 11 17 19 26 16 2 11 26 17 28 24 25 10 23 9 3 3 28 10 12 22 11 12 25 5 24 15 27 25 24 17 23 0 8 11 2 15 3 13 13 27 10 24 5 27 5 4 3 21 1 10 19 14 26 2 0 10 4 10 5 21 2 19 12 8 28 23 0 21 2 21 6 4 7 12 7 15 10 19 
p70:
49470
1 0 1 1 1 1 1 1 1 0 1 1 1 1 1 1 1 1 1 1 1 1 1 1 0 1 1 1 1 0 
18 19 21 27 2 12 15 27 22 28 4 28 13 13 28 18 3 20 22 0 18 16 23 0 10 18 27 19 4 2 19 19 4 16 27 6 20 8 16 16 18 8 6 4 8 19 13 21 19 14 27 16 2 16 8 6 11 8 18 25 4 0 7 8 13 11 5 14 28 25 18 12 19 8 23 23 20 23 8 16 10 0 26 25 4 13 6 5 27 7 28 6 25 25 2 3 11 6 0 28 28 15 25 18 4 0 4 27 22 3 19 4 27 12 12 8 28 7 17 8 26 11 17 19 26 16 2 11 26 17 28 21 25 20 23 8 3 3 28 10 12 22 11 11 25 5 16 15 27 25 27 17 10 0 8 11 2 15 3 13 13 27 10 2 5 27 5 4 3 21 5 20 19 14 26 2 0 10 4 10 5 21 2 19 12 8 28 23 0 21 2 21 6 4 7 12 7 15 10 19 
p71:
35968
1 0 1 1 1 1 1 1 1 0 1 1 1 1 1 1 1 1 1 1 1 1 0 1 1 1 1 1 1 0 
18 19 21 27 2 12 15 27 18 28 4 28 13 13 28 18 3 20 27 0 18 16 5 24 10 18 27 19 4 2 19 19 4 16 27 6 20 8 24 16 18 8 6 4 8 19 13 21 19 14 24 16 24 16 20 6 11 8 18 7 4 0 7 8 13 11 5 14 28 25 18 12 19 8 23 23 20 23 8 16 10 0 26 25 4 13 6 5 27 7 28 6 25 25 0 3 11 6 0 28 28 15 25 18 4 24 4 24 27 3 19 4 27 12 12 8 28 7 17 8 26 11 17 19 26 16 2 11 26 17 28 24 25 20 23 8 3 3 28 10 12 27 11 11 25 5 24 15 27 25 24 17 23 17 8 11 2 15 3 13 13 27 10 24 5 27 5 4 3 21 5 20 19 14 26 2 0 10 4 10 5 21 2 19 12 8 11 23 0 21 2 21 6 4 7 12 7 15 10 19 
